x = 20;
y = 15;
c = 71;
n = 57;

p = [47  86  40  97  43  99  88  17  38  50  41  35  95  28  26  55  49  65  37  14  65  78  46  40  83  51  96  26  85  92  100  11  43  52  40  70  76  70  72  83  38  20  59  22  26  22  31  67  66  12  92  25  20  66  49  90  30];
w = [2  8  10  7  2  9  5  4  10  5  10  1  4  6  4  3  10  3  8  5  5  3  8  4  1  8  5  7  9  7  9  9  8  5  9  5  9  2  9  3  10  5  5  7  6  8  10  10  8  4  4  2  8  1  2  10  6];
s = [7  7  3  12  7  6  11  2  9  7  13  12  9  5  2  13  14  2  4  4  4  9  12  1  1  12  1  14  13  15  4  1  3  10  11  7  7  11  9  2  9  9  4  5  9  9  2  11  14  12  6  4  9  15  10  10  10];
